20190531 500 0 0 0
20180711 120 0 0 0
20170718 100 0 0 0
20160526 50 0 0 0
20150710 170 5000 0 0
20140822 100 0 0 0
20130820 100 0 0 0
20120814 100 0 0 0
20110711 120 2000 0 0
20100624 120 2000 0 0
20090716 100 0 0 0
20080801 122 0 0 0
20070620 100 0 0 0
20060626 90 0 0 0
20060209 0 3320 0 0
20050714 80 0 0 0
